NV center in diamond                                      
   1.00000000000000     
    10.0827079400000000    0.0000000000000000    0.0000000000000000
     5.0413539700000000    8.7318812140000000    0.0000000000000000
     5.0413539700000000    2.9106270660000000    8.2324965230000000
   C    N 
   126     1
Direct
  0.5627033082888996  0.5627033082888996  0.8137409807985351
  0.5621361182158449  0.5621361182158449  0.0621146840933039
  0.5649356482782152  0.5649356482782152  0.3015720653615288
  0.5627033082888996  0.8137409807985351  0.5627033082888996
  0.5624401931157267  0.8128470998517057  0.8128470998517057
  0.5622090141346788  0.8130559900284434  0.0626155312187914
  0.5629394425977674  0.8096377117503741  0.3141827811865199
  0.5621361182158449  0.0621146840933039  0.5621361182158449
  0.5622090141346788  0.0626155312187914  0.8130559900284434
  0.5624895587213075  0.0623424531413626  0.0623424531413626
  0.5624028850802819  0.0622352950217992  0.3126111644790767
  0.5649356482782152  0.3015720653615288  0.5649356482782152
  0.5629394425977674  0.3141827811865199  0.8096377117503741
  0.5624028850802819  0.3126111644790767  0.0622352950217992
  0.5621808553460814  0.3126793134565435  0.3126793134565435
  0.8137409807985351  0.5627033082888996  0.5627033082888996
  0.8128470998517057  0.5624401931157267  0.8128470998517057
  0.8130559900284434  0.5622090141346788  0.0626155312187914
  0.8096377117503741  0.5629394425977674  0.3141827811865199
  0.8128470998517057  0.8128470998517057  0.5624401931157267
  0.8126160265692537  0.8126160265692537  0.8126160265692537
  0.8123566746115168  0.8123566746115168  0.0626596284586504
  0.8125074223607748  0.8125074223607748  0.3125880360005564
  0.8130559900284434  0.0626155312187914  0.5622090141346788
  0.8123566746115168  0.0626596284586504  0.8123566746115168
  0.8124130286606884  0.0624958203164827  0.0624958203164827
  0.8124100906448453  0.0626639930825590  0.3124947772471783
  0.8096377117503741  0.3141827811865199  0.5629394425977674
  0.8125074223607748  0.3125880360005564  0.8125074223607748
  0.8124100906448453  0.3124947772471783  0.0626639930825590
  0.8113037460702301  0.3130408024586556  0.3130408024586556
  0.0621146840933039  0.5621361182158449  0.5621361182158449
  0.0626155312187914  0.5622090141346788  0.8130559900284434
  0.0623424531413626  0.5624895587213075  0.0623424531413626
  0.0622352950217992  0.5624028850802819  0.3126111644790767
  0.0626155312187914  0.8130559900284434  0.5622090141346788
  0.0626596284586504  0.8123566746115168  0.8123566746115168
  0.0624958203164827  0.8124130286606884  0.0624958203164827
  0.0626639930825590  0.8124100906448453  0.3124947772471783
  0.0623424531413626  0.0623424531413626  0.5624895587213075
  0.0624958203164827  0.0624958203164827  0.8124130286606884
  0.0625194607508167  0.0625194607508167  0.0625194607508167
  0.0624772088107667  0.0624772088107667  0.3125845169854122
  0.0622352950217992  0.3126111644790767  0.5624028850802819
  0.0626639930825590  0.3124947772471783  0.8124100906448453
  0.0624772088107667  0.3125845169854122  0.0624772088107667
  0.0619058399254252  0.3126264979543832  0.3126264979543832
  0.3015720653615288  0.5649356482782152  0.5649356482782152
  0.3141827811865199  0.5629394425977674  0.8096377117503741
  0.3126111644790767  0.5624028850802819  0.0622352950217992
  0.3126793134565435  0.5621808553460814  0.3126793134565435
  0.3141827811865199  0.8096377117503741  0.5629394425977674
  0.3125880360005564  0.8125074223607748  0.8125074223607748
  0.3124947772471783  0.8124100906448453  0.0626639930825590
  0.3130408024586556  0.8113037460702301  0.3130408024586556
  0.3126111644790767  0.0622352950217992  0.5624028850802819
  0.3124947772471783  0.0626639930825590  0.8124100906448453
  0.3125845169854122  0.0624772088107667  0.0624772088107667
  0.3126264979543832  0.0619058399254252  0.3126264979543832
  0.3126793134565435  0.3126793134565435  0.5621808553460814
  0.3130408024586556  0.3130408024586556  0.8113037460702301
  0.3126264979543832  0.3126264979543832  0.0619058399254252
  0.3124084594482733  0.3124084594482733  0.3124084594482733
  0.5029462252863124  0.5029462252863124  0.7466526249804163
  0.5001622368475430  0.5001622368475430 -0.0001233496718463
  0.5002963899032925  0.5002963899032925  0.2501832225368452
  0.5029462252863125  0.7466526249804163  0.5029462252863124
  0.5001580346354177  0.7504423557012683  0.7504423557012683
  0.4999937958568004  0.7499182665470776  0.0002957910719715
  0.5003322753769395  0.7467891919889612  0.2517511230906972
  0.5001622368475430 -0.0001233496718463  0.5001622368475430
  0.4999937958568004  0.0002957910719715  0.7499182665470776
  0.5000927219950778 -0.0001433399760828 -0.0001433399760828
  0.5000388405358969 -0.0012283268441431  0.2508588415281882
  0.5002963899032925  0.2501832225368452  0.5002963899032925
  0.5003322753769395  0.2517511230906972  0.7467891919889612
  0.5000388405358969  0.2508588415281882 -0.0012283268441431
  0.5000103869863938  0.2499695105364091  0.2499695105364091
  0.7466526249804163  0.5029462252863124  0.5029462252863124
  0.7504423557012683  0.5001580346354177  0.7504423557012683
  0.7499182665470776  0.4999937958568004  0.0002957910719715
  0.7467891919889612  0.5003322753769395  0.2517511230906972
  0.7504423557012683  0.7504423557012683  0.5001580346354177
  0.7501539760545827  0.7501539760545827  0.7501539760545827
  0.7498673470926964  0.7498673470926964  0.0002467376658016
  0.7496467000576892  0.7496467000576892  0.2504338277720012
  0.7499182665470776  0.0002957910719715  0.4999937958568004
  0.7498673470926964  0.0002467376658016  0.7498673470926964
  0.7499370075865165 -0.0000394959361147 -0.0000394959361147
  0.7499610370025123 -0.0000225125118299  0.2500389871967082
  0.7467891919889612  0.2517511230906972  0.5003322753769395
  0.7496467000576892  0.2504338277720012  0.7496467000576892
  0.7499610370025123  0.2500389871967082 -0.0000225125118299
  0.7494765132498368  0.2502833668094775  0.2502833668094775
 -0.0001233496718463  0.5001622368475430  0.5001622368475430
  0.0002957910719715  0.4999937958568004  0.7499182665470776
 -0.0001433399760828  0.5000927219950778 -0.0001433399760828
 -0.0012283268441431  0.5000388405358969  0.2508588415281882
  0.0002957910719715  0.7499182665470776  0.4999937958568004
  0.0002467376658016  0.7498673470926964  0.7498673470926964
 -0.0000394959361147  0.7499370075865165 -0.0000394959361147
 -0.0000225125118299  0.7499610370025123  0.2500389871967082
 -0.0001433399760828 -0.0001433399760828  0.5000927219950778
 -0.0000394959361147 -0.0000394959361147  0.7499370075865165
 -0.0000146186846262 -0.0000146186846262 -0.0000146186846262
 -0.0000297491191783 -0.0000297491191783  0.2500531832793690
 -0.0012283268441431  0.2508588415281882  0.5000388405358969
 -0.0000225125118299  0.2500389871967082  0.7499610370025123
 -0.0000297491191783  0.2500531832793690 -0.0000297491191783
 -0.0007797857832572  0.2502251854362801  0.2502251854362801
  0.2501832225368452  0.5002963899032925  0.5002963899032925
  0.2517511230906972  0.5003322753769395  0.7467891919889612
  0.2508588415281882  0.5000388405358969 -0.0012283268441431
  0.2499695105364091  0.5000103869863938  0.2499695105364091
  0.2517511230906972  0.7467891919889612  0.5003322753769395
  0.2504338277720012  0.7496467000576892  0.7496467000576892
  0.2500389871967082  0.7499610370025123 -0.0000225125118299
  0.2502833668094775  0.7494765132498368  0.2502833668094775
  0.2508588415281882 -0.0012283268441431  0.5000388405358969
  0.2500389871967082 -0.0000225125118299  0.7499610370025123
  0.2500531832793690 -0.0000297491191783 -0.0000297491191783
  0.2502251854362801 -0.0007797857832572  0.2502251854362801
  0.2499695105364091  0.2499695105364091  0.5000103869863938
  0.2502833668094775  0.2502833668094775  0.7494765132498368
  0.2502251854362801  0.2502251854362801 -0.0007797857832572
  0.2499115560638911  0.2499115560638911  0.2499115560638911
  0.5681487056341101  0.5681487056341101  0.5681487056341101
 
  0.00000000E+00  0.00000000E+00  0.00000000E+00
  0.00000000E+00  0.00000000E+00  0.00000000E+00
  0.00000000E+00  0.00000000E+00  0.00000000E+00
  0.00000000E+00  0.00000000E+00  0.00000000E+00
  0.00000000E+00  0.00000000E+00  0.00000000E+00
  0.00000000E+00  0.00000000E+00  0.00000000E+00
  0.00000000E+00  0.00000000E+00  0.00000000E+00
  0.00000000E+00  0.00000000E+00  0.00000000E+00
  0.00000000E+00  0.00000000E+00  0.00000000E+00
  0.00000000E+00  0.00000000E+00  0.00000000E+00
  0.00000000E+00  0.00000000E+00  0.00000000E+00
  0.00000000E+00  0.00000000E+00  0.00000000E+00
  0.00000000E+00  0.00000000E+00  0.00000000E+00
  0.00000000E+00  0.00000000E+00  0.00000000E+00
  0.00000000E+00  0.00000000E+00  0.00000000E+00
  0.00000000E+00  0.00000000E+00  0.00000000E+00
  0.00000000E+00  0.00000000E+00  0.00000000E+00
  0.00000000E+00  0.00000000E+00  0.00000000E+00
  0.00000000E+00  0.00000000E+00  0.00000000E+00
  0.00000000E+00  0.00000000E+00  0.00000000E+00
  0.00000000E+00  0.00000000E+00  0.00000000E+00
  0.00000000E+00  0.00000000E+00  0.00000000E+00
  0.00000000E+00  0.00000000E+00  0.00000000E+00
  0.00000000E+00  0.00000000E+00  0.00000000E+00
  0.00000000E+00  0.00000000E+00  0.00000000E+00
  0.00000000E+00  0.00000000E+00  0.00000000E+00
  0.00000000E+00  0.00000000E+00  0.00000000E+00
  0.00000000E+00  0.00000000E+00  0.00000000E+00
  0.00000000E+00  0.00000000E+00  0.00000000E+00
  0.00000000E+00  0.00000000E+00  0.00000000E+00
  0.00000000E+00  0.00000000E+00  0.00000000E+00
  0.00000000E+00  0.00000000E+00  0.00000000E+00
  0.00000000E+00  0.00000000E+00  0.00000000E+00
  0.00000000E+00  0.00000000E+00  0.00000000E+00
  0.00000000E+00  0.00000000E+00  0.00000000E+00
  0.00000000E+00  0.00000000E+00  0.00000000E+00
  0.00000000E+00  0.00000000E+00  0.00000000E+00
  0.00000000E+00  0.00000000E+00  0.00000000E+00
  0.00000000E+00  0.00000000E+00  0.00000000E+00
  0.00000000E+00  0.00000000E+00  0.00000000E+00
  0.00000000E+00  0.00000000E+00  0.00000000E+00
  0.00000000E+00  0.00000000E+00  0.00000000E+00
  0.00000000E+00  0.00000000E+00  0.00000000E+00
  0.00000000E+00  0.00000000E+00  0.00000000E+00
  0.00000000E+00  0.00000000E+00  0.00000000E+00
  0.00000000E+00  0.00000000E+00  0.00000000E+00
  0.00000000E+00  0.00000000E+00  0.00000000E+00
  0.00000000E+00  0.00000000E+00  0.00000000E+00
  0.00000000E+00  0.00000000E+00  0.00000000E+00
  0.00000000E+00  0.00000000E+00  0.00000000E+00
  0.00000000E+00  0.00000000E+00  0.00000000E+00
  0.00000000E+00  0.00000000E+00  0.00000000E+00
  0.00000000E+00  0.00000000E+00  0.00000000E+00
  0.00000000E+00  0.00000000E+00  0.00000000E+00
  0.00000000E+00  0.00000000E+00  0.00000000E+00
  0.00000000E+00  0.00000000E+00  0.00000000E+00
  0.00000000E+00  0.00000000E+00  0.00000000E+00
  0.00000000E+00  0.00000000E+00  0.00000000E+00
  0.00000000E+00  0.00000000E+00  0.00000000E+00
  0.00000000E+00  0.00000000E+00  0.00000000E+00
  0.00000000E+00  0.00000000E+00  0.00000000E+00
  0.00000000E+00  0.00000000E+00  0.00000000E+00
  0.00000000E+00  0.00000000E+00  0.00000000E+00
  0.00000000E+00  0.00000000E+00  0.00000000E+00
  0.00000000E+00  0.00000000E+00  0.00000000E+00
  0.00000000E+00  0.00000000E+00  0.00000000E+00
  0.00000000E+00  0.00000000E+00  0.00000000E+00
  0.00000000E+00  0.00000000E+00  0.00000000E+00
  0.00000000E+00  0.00000000E+00  0.00000000E+00
  0.00000000E+00  0.00000000E+00  0.00000000E+00
  0.00000000E+00  0.00000000E+00  0.00000000E+00
  0.00000000E+00  0.00000000E+00  0.00000000E+00
  0.00000000E+00  0.00000000E+00  0.00000000E+00
  0.00000000E+00  0.00000000E+00  0.00000000E+00
  0.00000000E+00  0.00000000E+00  0.00000000E+00
  0.00000000E+00  0.00000000E+00  0.00000000E+00
  0.00000000E+00  0.00000000E+00  0.00000000E+00
  0.00000000E+00  0.00000000E+00  0.00000000E+00
  0.00000000E+00  0.00000000E+00  0.00000000E+00
  0.00000000E+00  0.00000000E+00  0.00000000E+00
  0.00000000E+00  0.00000000E+00  0.00000000E+00
  0.00000000E+00  0.00000000E+00  0.00000000E+00
  0.00000000E+00  0.00000000E+00  0.00000000E+00
  0.00000000E+00  0.00000000E+00  0.00000000E+00
  0.00000000E+00  0.00000000E+00  0.00000000E+00
  0.00000000E+00  0.00000000E+00  0.00000000E+00
  0.00000000E+00  0.00000000E+00  0.00000000E+00
  0.00000000E+00  0.00000000E+00  0.00000000E+00
  0.00000000E+00  0.00000000E+00  0.00000000E+00
  0.00000000E+00  0.00000000E+00  0.00000000E+00
  0.00000000E+00  0.00000000E+00  0.00000000E+00
  0.00000000E+00  0.00000000E+00  0.00000000E+00
  0.00000000E+00  0.00000000E+00  0.00000000E+00
  0.00000000E+00  0.00000000E+00  0.00000000E+00
  0.00000000E+00  0.00000000E+00  0.00000000E+00
  0.00000000E+00  0.00000000E+00  0.00000000E+00
  0.00000000E+00  0.00000000E+00  0.00000000E+00
  0.00000000E+00  0.00000000E+00  0.00000000E+00
  0.00000000E+00  0.00000000E+00  0.00000000E+00
  0.00000000E+00  0.00000000E+00  0.00000000E+00
  0.00000000E+00  0.00000000E+00  0.00000000E+00
  0.00000000E+00  0.00000000E+00  0.00000000E+00
  0.00000000E+00  0.00000000E+00  0.00000000E+00
  0.00000000E+00  0.00000000E+00  0.00000000E+00
  0.00000000E+00  0.00000000E+00  0.00000000E+00
  0.00000000E+00  0.00000000E+00  0.00000000E+00
  0.00000000E+00  0.00000000E+00  0.00000000E+00
  0.00000000E+00  0.00000000E+00  0.00000000E+00
  0.00000000E+00  0.00000000E+00  0.00000000E+00
  0.00000000E+00  0.00000000E+00  0.00000000E+00
  0.00000000E+00  0.00000000E+00  0.00000000E+00
  0.00000000E+00  0.00000000E+00  0.00000000E+00
  0.00000000E+00  0.00000000E+00  0.00000000E+00
  0.00000000E+00  0.00000000E+00  0.00000000E+00
  0.00000000E+00  0.00000000E+00  0.00000000E+00
  0.00000000E+00  0.00000000E+00  0.00000000E+00
  0.00000000E+00  0.00000000E+00  0.00000000E+00
  0.00000000E+00  0.00000000E+00  0.00000000E+00
  0.00000000E+00  0.00000000E+00  0.00000000E+00
  0.00000000E+00  0.00000000E+00  0.00000000E+00
  0.00000000E+00  0.00000000E+00  0.00000000E+00
  0.00000000E+00  0.00000000E+00  0.00000000E+00
  0.00000000E+00  0.00000000E+00  0.00000000E+00
  0.00000000E+00  0.00000000E+00  0.00000000E+00
  0.00000000E+00  0.00000000E+00  0.00000000E+00
  0.00000000E+00  0.00000000E+00  0.00000000E+00
  0.00000000E+00  0.00000000E+00  0.00000000E+00
